1 1837
2 1609
3 1587
8 1582
9 1542
14 1541
19 1532
20 1531
25 1527
32 1516
42 1495
61 1447
171 1398



1 1882
2 1611
3 1575
4 1516
44 1493
66 1444
159 1434
366 1425



1 1752
2 1617
3 1541
11 1527
23 1454
86 1419
466 1406



1 1899
2 1681
3 1666
4 1658
5 1633
6 1602
7 1577
9 1526
15 1493
47 1487
51 1469
126 1466
136 1460
137 1451
166 1426
407 1422
839 1411



1 1810
2 1662
3 1568
9 1531
12 1486
20 1468
30 1433
149 1419
855 1332



